
Gurobi 9.0.2 (win64) logging started Sun Dec 27 04:26:20 2020

Changed value of parameter logfile to result\SunCable-20201227T0415\scenario_2030_m30_cab1000.log
   Prev:   Default: 
Gurobi Optimizer version 9.0.2 build v9.0.2rc0 (win64)
Optimize a model with 1243974 rows, 762167 columns and 3491691 nonzeros
Model fingerprint: 0xce5a3959
Coefficient statistics:
  Matrix range     [1e-07, 3e+05]
  Objective range  [1e+00, 1e+00]
  Bounds range     [0e+00, 0e+00]
  RHS range        [2e-05, 3e+08]
Warning: Model contains large matrix coefficient range
         Consider reformulating model or setting NumericFocus parameter
         to avoid numerical issues.

Concurrent LP optimizer: primal simplex, dual simplex, and barrier
Showing barrier log only...

Presolve removed 1068997 rows and 595935 columns
Presolve time: 2.62s
Presolved: 174977 rows, 280098 columns, 652320 nonzeros

Ordering time: 0.08s

Barrier statistics:
 Dense cols : 5
 AA' NZ     : 6.422e+05
 Factor NZ  : 3.150e+06 (roughly 200 MBytes of memory)
 Factor Ops : 7.040e+07 (less than 1 second per iteration)
 Threads    : 30

                  Objective                Residual
Iter       Primal          Dual         Primal    Dual     Compl     Time
   0  -2.28029382e+16 -1.07293324e+15  6.65e+06 2.60e+04  2.74e+12     3s
   1  -4.95666905e+15 -1.08564053e+15  1.44e+06 4.52e+06  7.75e+11     3s
   2  -1.50711837e+15 -1.02946310e+15  4.41e+05 1.29e+06  2.38e+11     4s
   3  -3.85758182e+14 -9.27561126e+14  1.13e+05 1.88e+05  5.55e+10     4s
   4  -9.20913552e+13 -5.83180631e+14  2.58e+04 4.50e+04  1.33e+10     4s
   5  -2.95242573e+13 -3.38118604e+14  7.68e+03 1.80e+04  4.45e+09     4s
   6  -9.85196756e+12 -1.92802966e+14  2.69e+03 4.47e+03  1.49e+09     5s
   7  -1.81244318e+12 -9.42764998e+13  5.77e+02 5.01e+02  3.34e+08     5s
   8   2.89214809e+11 -1.70435300e+13  1.13e+01 1.42e+01  3.25e+07     5s
   9   1.53743061e+11 -2.71479987e+12  2.83e-01 1.87e+00  5.14e+06     5s
  10   8.23604387e+10 -1.32264652e+12  1.13e-01 6.90e-01  2.50e+06     5s
  11   3.07642608e+10 -3.63448079e+11  2.61e-02 1.49e-08  6.97e+05     6s
  12   1.26762941e+10 -1.19191036e+11  5.57e-03 2.24e-08  2.33e+05     6s
  13   1.15803814e+10 -6.77974343e+10  2.88e-03 2.24e-08  1.40e+05     6s
  14   8.73953517e+09 -9.67896337e+09  1.27e-03 1.86e-08  3.25e+04     7s
  15   7.25631545e+09  1.82723694e+08  5.39e-04 9.31e-09  1.25e+04     7s
  16   6.72454716e+09  3.08606547e+09  2.77e-04 7.45e-09  6.40e+03     7s
  17   6.44589103e+09  4.07164325e+09  1.54e-04 5.59e-09  4.18e+03     7s
  18   6.32108236e+09  5.30246002e+09  1.01e-04 3.73e-09  1.79e+03     7s
  19   6.29949526e+09  5.46831874e+09  9.26e-05 3.73e-09  1.46e+03     8s
  20   6.25505556e+09  5.58382212e+09  7.62e-05 2.79e-09  1.18e+03     8s
  21   6.20757450e+09  5.74206693e+09  5.75e-05 2.79e-09  8.19e+02     8s
  22   6.17592611e+09  5.84100453e+09  4.49e-05 1.86e-09  5.89e+02     9s
  23   6.15046905e+09  5.90628737e+09  3.48e-05 1.86e-09  4.30e+02     9s
  24   6.11742272e+09  5.95929728e+09  2.16e-05 1.86e-09  2.78e+02     9s
  25   6.10061029e+09  6.00409826e+09  1.45e-05 1.86e-09  1.70e+02    10s
  26   6.08696823e+09  6.03373675e+09  8.87e-06 1.86e-09  9.37e+01    10s
  27   6.07877996e+09  6.04235100e+09  5.32e-06 1.86e-09  6.41e+01    10s
  28   6.07675926e+09  6.04824487e+09  4.44e-06 1.86e-09  5.02e+01    10s
  29   6.07162288e+09  6.05319917e+09  2.23e-06 1.86e-09  3.24e+01    10s
  30   6.06875138e+09  6.05854765e+09  9.96e-07 1.86e-09  1.79e+01    11s
  31   6.06765535e+09  6.06265308e+09  5.49e-07 1.86e-09  8.80e+00    11s
  32   6.06679266e+09  6.06355651e+09  1.94e-07 1.86e-09  5.69e+00    11s
  33   6.06658906e+09  6.06455861e+09  2.44e-07 1.86e-09  3.57e+00    11s
  34   6.06650516e+09  6.06475646e+09  1.89e-07 1.86e-09  3.08e+00    12s
  35   6.06638915e+09  6.06544084e+09  9.65e-08 1.86e-09  1.67e+00    12s
  36   6.06633107e+09  6.06560288e+09  2.06e-07 1.86e-09  1.28e+00    12s
  37   6.06630754e+09  6.06600098e+09  1.75e-07 2.79e-09  5.39e-01    12s
  38   6.06630474e+09  6.06605041e+09  1.32e-07 2.79e-09  4.47e-01    12s
  39   6.06630075e+09  6.06611031e+09  1.17e-07 1.86e-09  3.35e-01    13s
  40   6.06629942e+09  6.06626799e+09  1.81e-07 2.79e-09  5.52e-02    13s
  41   6.06629876e+09  6.06629339e+09  2.57e-08 2.79e-09  9.43e-03    13s
  42   6.06629872e+09  6.06629659e+09  1.93e-08 1.86e-09  3.75e-03    13s
  43   6.06629869e+09  6.06629664e+09  1.29e-08 1.86e-09  3.61e-03    14s

Barrier solved model in 43 iterations and 13.61 seconds
Optimal objective 6.06629869e+09

Crossover log...

   11130 DPushes remaining with DInf 0.0000000e+00                14s
       0 DPushes remaining with DInf 0.0000000e+00                15s
Warning: Markowitz tolerance tightened to 0.5

  130733 PPushes remaining with PInf 6.7598847e-04                15s
   56236 PPushes remaining with PInf 1.7646672e-02                19s
       0 PPushes remaining with PInf 0.0000000e+00                20s

  Push phase complete: Pinf 0.0000000e+00, Dinf 6.9671262e+01     20s

Iteration    Objective       Primal Inf.    Dual Inf.      Time
  141865    6.0662986e+09   0.000000e+00   6.967126e+01     20s
  141877    6.0662986e+09   0.000000e+00   0.000000e+00     22s

Solved with barrier
Solved in 141877 iterations and 21.94 seconds
Optimal objective  6.066298618e+09
Warning: unscaled primal violation = 0.000865163 and residual = 0.000865163
